2802298.0
1441
2 3 4 5 6 7 8 9 13 15 16 18 21 24 27 29 31 32 33 36 37 38 40 42 44 47 48 49 50 51 56 59 60 62 64 65 66 69 70 72 74 76 77 78 80 81 83 85 86 90 92 94 95 96 99 100 101 103 107 109 111 112 114 115 117 119 121 122 124 129 130 133 135 137 138 139 140 141 142 143 144 145 146 147 151 154 156 158 160 162 165 167 168 169 171 174 175 176 177 179 180 182 183 188 190 191 193 194 195 198 